100 151478
9 35 13 26 3 85 37 77 65 100 31 58 54 25 29 87 48 32 17 16 4 76 40 57 64 94 2 66 73 59 93 83 43 92 56 68 5 75 8 7 6 23 96 90 11 97 80 20 36 81 49 47 42 12 14 89 78 1 24 38 22 27 19 82 72 55 50 28 44 18 98 62 34 60 99 91 10 71 52 63 30 39 84 70 79 46 95 33 88 67 74 61 15 21 69 51 86 45 53 41 
